language Essence 1.3

letting blksize_delta be
        function(1 --> 8, 2 --> 8, 3 --> 8, 4 --> 10, 5 --> 9, 6 --> 8, 7 --> 8, 8 --> 10, 9 --> 8, 10 --> 8, 11 --> 10,
                 12 --> 10, 13 --> 8, 14 --> 9, 15 --> 8, 16 --> 8, 17 --> 10, 18 --> 8, 19 --> 8, 20 --> 8, 21 --> 9,
                 22 --> 8)
letting maxcars be
        function(1 --> 9, 2 --> 9, 3 --> 10, 4 --> 10, 5 --> 9, 6 --> 9, 7 --> 9, 8 --> 10, 9 --> 10, 10 --> 9,
                 11 --> 9, 12 --> 10, 13 --> 9, 14 --> 9, 15 --> 10, 16 --> 10, 17 --> 9, 18 --> 9, 19 --> 9, 20 --> 10,
                 21 --> 9, 22 --> 10)
letting n_cars be 214
letting n_classes be 29
letting n_options be 22
letting quantity be
        function(1 --> 17, 2 --> 7, 3 --> 8, 4 --> 7, 5 --> 7, 6 --> 7, 7 --> 7, 8 --> 7, 9 --> 7, 10 --> 7, 11 --> 7,
                 12 --> 7, 13 --> 7, 14 --> 7, 15 --> 7, 16 --> 7, 17 --> 7, 18 --> 7, 19 --> 7, 20 --> 7, 21 --> 7,
                 22 --> 7, 23 --> 7, 24 --> 7, 25 --> 7, 26 --> 7, 27 --> 7, 28 --> 7, 29 --> 7)
letting usage be
        relation((1, 2), (1, 3), (1, 7), (1, 10), (1, 11), (1, 12), (1, 17), (1, 18), (1, 20), (1, 21), (1, 22), (2, 1),
                 (2, 13), (2, 15), (2, 16), (2, 17), (2, 21), (3, 16), (3, 21), (4, 4), (4, 9), (4, 12), (4, 15),
                 (5, 6), (5, 8), (5, 9), (5, 17), (5, 18), (5, 21), (6, 12), (6, 18), (6, 19), (7, 1), (7, 2), (7, 7),
                 (7, 8), (7, 12), (7, 17), (7, 21), (7, 22), (8, 9), (8, 18), (8, 19), (9, 5), (9, 8), (9, 14), (9, 20),
                 (10, 2), (10, 4), (10, 5), (10, 14), (10, 22), (11, 3), (11, 9), (11, 12), (11, 13), (12, 1), (12, 3),
                 (12, 4), (12, 7), (12, 13), (12, 16), (13, 3), (13, 6), (13, 7), (13, 8), (13, 10), (13, 15), (13, 20),
                 (13, 21), (14, 7), (14, 9), (14, 21), (14, 22), (15, 1), (15, 6), (15, 10), (15, 15), (15, 17),
                 (16, 1), (16, 8), (16, 18), (16, 20), (17, 2), (17, 3), (17, 4), (17, 8), (17, 10), (17, 14), (17, 20),
                 (17, 22), (18, 2), (18, 12), (18, 17), (19, 10), (19, 17), (19, 21), (20, 4), (20, 9), (20, 10),
                 (20, 11), (20, 15), (20, 18), (20, 19), (20, 21), (21, 9), (21, 10), (21, 18), (21, 20), (21, 22),
                 (22, 1), (22, 2), (22, 3), (22, 7), (22, 9), (22, 12), (22, 16), (22, 20), (23, 4), (23, 5), (23, 7),
                 (23, 10), (23, 11), (23, 12), (23, 15), (23, 19), (24, 6), (24, 16), (24, 19), (25, 5), (25, 13),
                 (25, 21), (26, 4), (26, 7), (26, 8), (26, 9), (26, 15), (26, 18), (26, 19), (26, 21), (26, 22),
                 (27, 1), (27, 5), (27, 7), (27, 10), (27, 16), (27, 20), (27, 21), (28, 5), (28, 13), (28, 14),
                 (28, 15), (29, 4), (29, 18), (29, 21))
$ Visualisation for usage
$  1  2
$  1  3
$  1  7
$  1 10
$  1 11
$  1 12
$  1 17
$  1 18
$  1 20
$  1 21
$  1 22
$  2  1
$  2 13
$  2 15
$  2 16
$  2 17
$  2 21
$  3 16
$  3 21
$  4  4
$  4  9
$  4 12
$  4 15
$  5  6
$  5  8
$  5  9
$  5 17
$  5 18
$  5 21
$  6 12
$  6 18
$  6 19
$  7  1
$  7  2
$  7  7
$  7  8
$  7 12
$  7 17
$  7 21
$  7 22
$  8  9
$  8 18
$  8 19
$  9  5
$  9  8
$  9 14
$  9 20
$ 10  2
$ 10  4
$ 10  5
$ 10 14
$ 10 22
$ 11  3
$ 11  9
$ 11 12
$ 11 13
$ 12  1
$ 12  3
$ 12  4
$ 12  7
$ 12 13
$ 12 16
$ 13  3
$ 13  6
$ 13  7
$ 13  8
$ 13 10
$ 13 15
$ 13 20
$ 13 21
$ 14  7
$ 14  9
$ 14 21
$ 14 22
$ 15  1
$ 15  6
$ 15 10
$ 15 15
$ 15 17
$ 16  1
$ 16  8
$ 16 18
$ 16 20
$ 17  2
$ 17  3
$ 17  4
$ 17  8
$ 17 10
$ 17 14
$ 17 20
$ 17 22
$ 18  2
$ 18 12
$ 18 17
$ 19 10
$ 19 17
$ 19 21
$ 20  4
$ 20  9
$ 20 10
$ 20 11
$ 20 15
$ 20 18
$ 20 19
$ 20 21
$ 21  9
$ 21 10
$ 21 18
$ 21 20
$ 21 22
$ 22  1
$ 22  2
$ 22  3
$ 22  7
$ 22  9
$ 22 12
$ 22 16
$ 22 20
$ 23  4
$ 23  5
$ 23  7
$ 23 10
$ 23 11
$ 23 12
$ 23 15
$ 23 19
$ 24  6
$ 24 16
$ 24 19
$ 25  5
$ 25 13
$ 25 21
$ 26  4
$ 26  7
$ 26  8
$ 26  9
$ 26 15
$ 26 18
$ 26 19
$ 26 21
$ 26 22
$ 27  1
$ 27  5
$ 27  7
$ 27 10
$ 27 16
$ 27 20
$ 27 21
$ 28  5
$ 28 13
$ 28 14
$ 28 15
$ 29  4
$ 29 18
$ 29 21

